(set-logic QF_UF)
(declare-sort U 0)
(declare-fun x0 () U)
(declare-fun y0 () U)
(declare-fun z0 () U)
(declare-fun x1 () U)
(declare-fun y1 () U)
(declare-fun z1 () U)
(declare-fun x2 () U)
(declare-fun y2 () U)
(declare-fun z2 () U)
(declare-fun x3 () U)
(declare-fun y3 () U)
(declare-fun z3 () U)
(assert (or (not (= (or (and (= x1 y1) (= y1 x2)) (and (= x1 z1) (= z1 x2))) (and (or (and (= x1 y1) (= y1 x2)) (and (= x1 z1) (= z1 x2))) (=> (or (and (= x1 y1) (= y1 x2)) (and (= x1 z1) (= z1 x2))) (= x1 x2))))) (not (or (and (= x1 y1) (= y1 x2)) (and (= x1 z1) (= z1 x2)))) (and (or (and (= x1 y1) (= y1 x2)) (and (= x1 z1) (= z1 x2))) (=> (or (and (= x1 y1) (= y1 x2)) (and (= x1 z1) (= z1 x2))) (= x1 x2)))))
(assert (= (or (and (= x1 y1) (= y1 x2)) (and (= x1 z1) (= z1 x2))) (and (or (and (= x1 y1) (= y1 x2)) (and (= x1 z1) (= z1 x2))) (=> (or (and (= x1 y1) (= y1 x2)) (and (= x1 z1) (= z1 x2))) (= x1 x2)))))
(assert (or (and (= x1 y1) (= y1 x2)) (and (= x1 z1) (= z1 x2))))
(assert (not (and (or (and (= x1 y1) (= y1 x2)) (and (= x1 z1) (= z1 x2))) (=> (or (and (= x1 y1) (= y1 x2)) (and (= x1 z1) (= z1 x2))) (= x1 x2)))))
(check-sat)
(exit)
